p cnf 11 22
-11 -9 -8 0
11 -9 -6 0
11 9 -4 0
-11 -8 -5 0
-11 -7 -1 0
10 9 8 0
-10 9 7 0
10 8 5 0
-10 -7 -4 0
10 -5 2 0
-9 -8 6 0
9 6 3 0
8 -7 -4 0
8 5 1 0
7 -6 5 0
7 6 4 0
-7 6 3 0
7 6 2 0
-7 -5 2 0
-6 -4 3 0
5 4 2 0
-5 3 2 0
